100
128
19
38
21
23
56
10
6
25
31
55
8
10
18
51
39
56
44
38
6
29
31
32
25
40
56
32
62
58
17
44
24
1
59
26
62
63
27
63
17
31
23
16
46
18
64
8
41
19
23
16
27
12
33
1
60
22
53
43
47
18
27
54
27
54
29
5
55
32
44
41
42
40
25
48
6
7
3
63
41
32
30
32
47
62
31
47
34
48
8
6
64
28
39
61
38
54
41
49
35
36